Minimize
  - 16 y_0 - 9 y_1 - 18 y_2 - 20 y_3 - 15 y_4 - 13 y_5 - 16 y_6 - 23 y_7
   - 12 y_8 - 14 y_9 - 20 y_10 - 14 y_12 - 13 y_13 - 24 y_14 - 10 y_15
   - 13 y_16 - 14 y_17 - 17 y_18 - 14 y_19 + 295 Constant
Subject To
 c_0: y_1 = 1
 c_1_0: y_0 + y_17 >= 1
 c_1_1: y_1 >= 1
 c_1_2: y_2 >= 1
 c_1_3: y_3 >= 1
 c_1_4: y_4 >= 1
 c_1_5: y_5 >= 1
 c_1_6: y_6 + y_12 >= 1
 c_1_7: y_7 + y_14 >= 1
 c_1_8: y_8 >= 1
 c_1_9: y_9 + y_12 + y_16 + y_19 >= 1
 c_1_10: y_10 >= 1
 c_1_11: y_11 >= 1
 c_1_12: y_6 + y_9 + y_12 + y_13 + y_16 + y_19 >= 1
 c_1_13: y_12 + y_13 + y_16 + y_19 >= 1
 c_1_14: y_7 + y_14 >= 1
 c_1_15: y_15 >= 1
 c_1_16: y_9 + y_12 + y_13 + y_16 + y_19 >= 1
 c_1_17: y_0 + y_17 >= 1
 c_1_18: y_18 >= 1
 c_1_19: y_9 + y_12 + y_13 + y_16 + y_19 >= 1
Bounds
 Constant = 1
Binaries
 y_0 y_1 y_2 y_3 y_4 y_5 y_6 y_7 y_8 y_9 y_10 y_11 y_12 y_13 y_14 y_15 y_16
 y_17 y_18 y_19
End
